p cnf 22 11
16 -15 21 13 -1 -18 17 5 -1 7 12 11 11 4 0
11 -7 7 8 8 -8 -20 19 -2 -17 15 -14 13 15 15 15 -22 -9 0
-7 21 -22 21 2 -22 9 20 8 -16 7 -4 -17 5 -12 0
-4 16 -12 -7 16 -17 18 6 -11 -4 13 0
-17 8 -11 2 -9 21 10 -1 11 -15 12 -18 -2 -17 -22 0
-22 -20 -21 -13 20 -7 21 -16 7 20 -12 13 15 0
-20 -10 -7 -1 -19 9 3 -6 10 -17 -8 6 -15 18 0
-7 0
-6 -1 13 19 -13 -22 -18 3 10 14 -7 2 7 10 19 -21 -18 14 18 20 -12 0
21 -14 -22 0
4 11 -19 -21 -7 -4 4 16 22 -10 -2 9 5 20 1 -21 -9 7 20 9 0